p cnf 19 43
a 10 13 0
e 1 2 3 4 5 6 7 8 9 11 12 14 15 16 17 18 19 0
-3 1 0
-3 -2 0
-1 2 3 0
-6 4 0
-6 5 0
-4 -5 6 0
-8 1 -9 0
8 -1 -9 0
-8 -1 9 0
8 1 9 0
-10 -7 0
-10 -9 0
7 9 10 0
-11 -6 0
-11 10 0
6 -10 11 0
-13 -7 0
-13 12 0
7 -12 13 0
14 12 0
14 -13 0
-12 13 -14 0
11 -14 -15 0
-11 14 -15 0
11 14 15 0
-11 -14 15 0
3 -15 -16 0
-3 15 -16 0
3 15 16 0
-3 -15 16 0
-4 17 -18 0
4 -17 -18 0
-4 -17 18 0
4 17 18 0
16 18 -19 0
-16 -18 -19 0
16 -18 19 0
-16 18 19 0
8 -13 -4 -2 16 -5 0
12 -15 1 9 16 -13 6 3 0
-12 -15 13 -9 5 0
-8 14 -9 -11 0
19 0
